100 100 100
50
90 8 93
72 5 66
73 1 98
67 97 49
99 48 91
88 91 23
94 100 92
74 32 91
99 46 74
30 46 37
80 92 23
72 12 83
75 22 77
70 49 78
24 89 83
88 73 24
92 79 37
70 41 84
89 60 69
100 28 91
81 75 23
76 54 90
95 38 91
50 47 22
86 10 74
71 32 93
72 72 27
87 15 89
24 69 91
88 14 85
91 93 92
94 16 73
46 84 77
89 65 52
73 77 97
15 43 33
100 99 56
18 67 81
79 50 56
80 8 79
83 17 69
97 33 99
19 79 81
82 14 73
95 3 69
97 82 61
79 43 74
90 27 71
91 88 10
89 2 84
